\ LP format - for model browsing. Use MPS format to capture full model detail.
Maximize
  1477.10500054956 C0(6) + 3128.72803596627 C1(14) + 3466.46769885136 C2(14)
   - 119.13196348 C3(1) + 1244.8114528852 C4(4) + 1102.44129546591 C5(7)
   + 1413.42372061203 C6(11) + 1078.5549750294 C7(4)
   + 445.2729025838601 C8(3) + 1208.58061240077 C9(8)
   + 1554.95071497069 C10(9) + 457.3404816687 C11(4)
   + 335.1899810042 C12(3) + 175.8566167043 C13(3) + 55.1078217694 C14(3)
   + 1402.04583628537 C15(7) + 407.1022082706999 C16(3)
   + 243.44784140557 C17(3) + 864.7857890353999 C18(4)
   + 213.0117932232 C19(3) + 271.8283505633401 C20(3)
   + 1031.73001846835 C21(6) - 23.58329658439999 C22(2)
   + 219.68569062116 C23(3) + 580.52142751501 C24(3)
   + 1144.5287088313 C25(6) + 988.07067788981 C26(6)
   + 1923.72718611168 C27(8) + 1506.56298961863 C28(7)
   + 953.05641353599 C29(6) + 1008.613115334 C30(6)
   + 783.1751821705001 C31(4) + 787.87604408587 C32(5)
   + 596.6274571743099 C33(4) + 249.10251801602 C34(3)
   + 293.6184513727 C35(4) + 762.5355258173101 C36(5)
   + 621.5842267375001 C37(4) + 3518.6684116643 C38(15)
   + 4048.69785813807 C39(15) - 207.8100186194 C40(1)
   + 2980.1490511227 C41(14) + 2567.2557403702 C42(14)
   + 2794.7641826702 C43(17) + 1849.0244903478 C44(12)
   + 1838.54648088379 C45(9) + 2158.20401347813 C46(13)
   + 2720.98183922117 C47(13) + 1772.64636377274 C48(13)
   + 2071.71617175803 C49(14) + 2083.21202233114 C50(11)
   + 1866.35351346686 C51(12) + 2356.86470920495 C52(13)
   + 1534.56949425727 C53(11) + 1790.274093206431 C54(11)
   + 1581.10495372179 C55(11) + 2053.12854512533 C56(13)
   + 2633.40960336642 C57(14) + 2327.78769920373 C58(10)
   + 1553.62631405371 C59(10) + 2418.1997831313 C60(13)
   + 2507.41946619963 C61(12) + 1779.41637135388 C62(12)
   + 1119.891908705 C63(10) + 2187.68445431194 C64(11)
   + 1251.05465270824 C65(9) + 2326.18325335598 C66(10)
   + 2043.643674344839 C67(11) + 2235.59586996771 C68(13)
   + 795.75910688334 C69(6) + 1718.24987700423 C70(11)
   + 2339.670777476641 C71(13) + 837.86599628152 C72(7)
   + 1366.86264643834 C73(8) + 1272.5410598186 C74(9)
   + 2018.86898036726 C75(12) + 1477.4512922125 C76(9)
   + 1204.17363378439 C77(11) + 1257.35147816359 C78(9)
   + 1936.30710414083 C79(12) + 2059.26946360903 C80(9)
   + 2367.13621538336 C81(11) + 1864.05738530155 C82(12)
   + 1476.38263665769 C83(10) + 1874.9068779329 C84(10)
   + 1398.06854049744 C85(10) + 1074.98936251544 C86(7)
   + 1671.72915174207 C87(10) + 2094.9825206047 C88(12)
   + 800.3985795811902 C89(8) + 779.7039075384199 C90(6)
   + 2585.54230169238 C91(12) + 3012.49142258914 C92(12)
   - 87.2403470093 C93(1) + 3068.42335089885 C94(14)
   + 1636.040577428 C95(8) + 827.2615483641501 C96(6)
   + 1378.26499258858 C97(4) + 1098.6887276956 C98(4)
   + 682.1660752647999 C99(5) + 1153.32103871216 C100(12)
   + 668.90045492586 C101(6) + 740.68345698087 C102(5)
   + 1521.24054166082 C103(8) + 1839.12922612639 C104(13)
   + 2034.513679857851 C105(12) + 992.7830911851402 C106(7)
   + 965.6934079950499 C107(7) + 1020.87036298312 C108(8)
   + 1763.8638802526 C109(12) + 148.99290270765 C110(3)
   + 2053.5616971414 C111(11) + 938.69856489931 C112(5)
   + 2600.58721895971 C113(12) + 2084.75937077395 C114(7)
   + 1731.98718232333 C115(6) + 2308.38110988532 C116(11)
   + 412.34990505015 C117(4) + 1089.07610942588 C118(7)
   + 215.68446206638 C119(2) + 592.1489531414101 C120(3)
   + 734.00073240353 C121(6) + 486.0010406249399 C122(4)
   - 42.19547584295 C123(2) + 691.01966812511 C124(4)
   + 1098.22342519032 C125(7) + 1945.94668465191 C126(12)
   + 977.0773367161901 C127(9) + 936.02171653934 C128(6)
   + 1841.24670342974 C129(11) + 1570.6679912279 C130(10)
   + 417.29223705503 C131(4) + 4327.528131966299 C132(17)
   - 91.47456976776 C133(1) + 753.402285761 C134(3)
   + 169.0196421865 C135(2) + 2746.58493809261 C136(11)
   + 739.1326097245999 C137(3) + 185.63144040727 C138(3)
   + 1143.95769726321 C139(7) + 265.9368132647099 C140(3)
   + 686.9355382865099 C141(4) + 413.98870514908 C142(5)
   + 832.6155594556099 C143(5) + 577.34661995052 C144(4)
   + 557.1966242864999 C145(4) + 871.67442088451 C146(6)
   + 418.8657153876999 C147(3) + 536.04967333471 C148(4)
   + 348.2100838227 C149(3) + 898.48439431977 C150(5)
   + 1216.92117532225 C151(7) + 1023.81294298585 C152(6)
   + 1108.06311665535 C153(7) + 1070.25736753599 C154(6)
   + 711.53948027632 C155(6) + 717.9586756284498 C156(6)
   + 677.7449094391599 C157(5) + 1077.24499781191 C158(6)
   + 379.86716344506 C159(4) + 816.59350567458 C160(8)
   + 1762.41617627648 C161(14) + 3211.945666915581 C162(14)
   - 118.9186664285 C163(1) + 2976.60504861632 C164(16)
   + 2410.474958942691 C165(13) + 1800.38850233501 C166(13)
   + 1644.43058644035 C167(9) + 1239.89633293746 C168(6)
   + 967.2406675616301 C169(9) + 415.57760567181 C170(5)
   + 140.69642006866 C171(3) + 1246.99583912804 C172(10)
   + 556.4160790693001 C173(6) + 1724.103631216969 C174(10)
   + 732.4100554168504 C175(8) + 1180.70421272198 C176(8)
   + 16.46574465064002 C177(3) + 946.3824053337303 C178(8)
   + 659.3659246711201 C179(6) + 1608.26107520175 C180(8)
   + 423.48865040649 C181(4) + 797.6448501567899 C182(6)
   + 273.15843101193 C183(3) + 533.0579907612 C184(3)
   + 1755.68782527842 C185(8) + 348.1372027983301 C186(5)
   + 694.10121952693 C187(5) + 386.0752452479799 C188(4)
   + 1169.88153060327 C189(8) + 454.86944179304 C190(4)
   + 1517.761579188731 C191(10) + 45.41932297151999 C192(2)
   + 841.9089817431402 C193(5) + 111.5566428032 C194(2)
   + 308.28765349791 C195(3) + 211.6852636154 C196(3)
   + 1292.72712066666 C197(9) + 881.59113702382 C198(6)
   + 282.53161461812 C199(3) + 558.7155907240999 C200(5)
   + 1413.22275111718 C201(11) + 690.6283890632701 C202(5)
   + 551.03961920271 C203(4) + 383.20973448307 C204(3)
   + 1649.25029302298 C205(7) + 1118.73998532232 C206(6)
   + 2047.526140443209 C207(9) + 307.27688548098 C208(4)
   + 3784.668158246909 C209(19) + 3787.842779454089 C210(18)
   - 74.8533429945 C211(1) + 3060.638673914319 C212(15)
   + 2572.253864341071 C213(15) + 2407.81413966158 C214(15)
   + 2303.452341837799 C215(14) + 2456.59082830968 C216(12)
   + 2330.78725688664 C217(14) + 914.3841895327399 C218(8)
   + 803.6915301567899 C219(6) + 1840.02542533798 C220(14)
   + 2063.57907676648 C221(11) + 1501.33222495178 C222(11)
   + 2087.38055276286 C223(13) + 603.9415504725499 C224(6)
   + 3485.428252634149 C225(15) + 1625.73541677813 C226(12)
   + 2163.7755528573 C227(12) + 2415.31562829518 C228(11)
   + 652.3861726076199 C229(6) + 2692.6758118643 C230(14)
   + 152.47658274135 C231(3) + 1852.79659810549 C232(10)
   + 134.05508721579 C233(4) + 850.08374019294 C234(8)
   + 1089.26703813022 C235(7) + 1409.9345220491 C236(10)
   + 274.80769084809 C237(3) + 1020.79501188008 C238(5)
   + 888.8900157226999 C239(4) + 623.03175924264 C240(6)
   + 1012.01240185841 C241(9) + 1143.68882632735 C242(11)
   + 1507.95596955158 C243(7) + 127.95535973176 C244(4)
   + 583.07205217978 C245(6) + 1080.21153835383 C246(8)
   + 632.8631995093001 C247(7) + 1406.77245785337 C248(10)
   + 650.79044348947 C249(5) + 259.21509583731 C250(5)
   + 777.2562824481 C251(6) + 381.90627318977 C252(5)
   + 319.4249508399801 C253(4) + 1159.21163074514 C254(5)
   + 461.0670756035499 C255(5) + 1197.39858951325 C256(8)
   + 2756.69954241873 C257(15) + 1121.32406992973 C258(8)
   + 1215.24066873245 C259(8) + 1596.48489180226 C260(8)
   + 2267.34410255972 C261(14) + 808.81381322968 C262(7)
   + 2255.527654801139 C263(12) + 1974.93916252755 C264(12)
   + 1008.21446912391 C265(5) + 808.6672799309799 C266(6)
   + 2533.420929821591 C267(13) + 2647.073957527991 C268(13)
   - 126.1649536568 C269(1) + 1625.6251521641 C270(7)
   + 1133.45761180315 C271(7) + 2564.73320553171 C272(14)
   + 1444.66772310443 C273(9) + 1205.21430994319 C274(7)
   + 1417.39592090491 C275(11) + 2407.55051026351 C276(15)
   + 1187.7986176774 C277(11) + 309.98706921308 C278(3)
   + 1775.93989545715 C279(10) + 1070.82318988854 C280(4)
   + 642.50403638594 C281(6) + 360.05170822993 C282(5)
   + 39.14698702495002 C283(3) + 1246.81975415738 C284(7)
   + 260.07868787802 C285(3) - 47.2846817316 C286(2)
   + 1887.92273898056 C287(10) + 1000.50384329718 C288(6)
   + 1128.72025089725 C289(7) + 2637.86212430317 C290(12)
   + 1255.94077176644 C291(7) + 560.77242796258 C292(4)
   + 559.9868828231399 C293(5) + 1119.50679562105 C294(6)
   + 1504.18241043124 C295(10) + 398.91073608872 C296(4)
   + 1190.84085409142 C297(8) + 1914.13470910596 C298(8)
   + 1067.88006945909 C299(5) + 577.27618743983 C300(5)
   + 1121.06196330779 C301(5) + 1553.79131150989 C302(10)
   + 1573.2739362492 C303(10) + 1509.83662786111 C304(9)
   + 1056.17486482319 C305(7) + 1337.9927221142 C306(9)
   + 1000.12086660542 C307(5) + 1190.56086482319 C308(6)
   + 1147.58650023751 C309(7)
Subject To
 c0: 7 C1(14) + 7 C2(14) + 7 C6(11) + 7 C8(3) + 7 C10(9) + 7 C15(7)
   + 7 C25(6) + 7 C26(6) + 7 C27(8) + 7 C28(7) + 7 C29(6) + 7 C30(6)
   + 7 C31(4) + 7 C36(5) + 7 C38(15) + 7 C39(15) + 7 C41(14) + 7 C42(14)
   + 7 C43(17) + 7 C47(13) + 7 C49(14) + 7 C52(13) + 7 C54(11) + 7 C57(14)
   + 7 C60(13) + 7 C62(12) + 7 C67(11) + 7 C71(13) + 7 C77(11) + 7 C91(12)
   + 7 C92(12) + 7 C94(14) + 7 C95(8) + 7 C103(8) + 7 C104(13) + 7 C105(12)
   + 7 C111(11) + 7 C113(12) + 7 C114(7) + 7 C116(11) + 7 C126(12)
   + 7 C127(9) + 7 C129(11) + 7 C130(10) + 7 C132(17) + 7 C152(6)
   + 7 C161(14) + 7 C162(14) + 7 C164(16) + 7 C165(13) + 7 C166(13)
   + 7 C172(10) + 7 C175(8) + 7 C180(8) + 7 C181(4) + 7 C185(8) + 7 C189(8)
   + 7 C191(10) + 7 C193(5) + 7 C197(9) + 7 C201(11) + 7 C205(7)
   + 7 C207(9) + 7 C208(4) + 7 C209(19) + 7 C210(18) + 7 C212(15)
   + 7 C213(15) + 7 C214(15) + 7 C215(14) + 7 C218(8) + 7 C220(14)
   + 7 C223(13) + 7 C225(15) + 7 C226(12) + 7 C230(14) + 7 C232(10)
   + 7 C241(9) + 7 C246(8) + 7 C251(6) + 7 C252(5) + 7 C253(4) + 7 C257(15)
   + 7 C260(8) + 7 C261(14) + 7 C263(12) + 7 C264(12) + 7 C265(5)
   + 7 C267(13) + 7 C268(13) <= 7
 c1: 10 C4(4) + 10 C24(3) + 10 C25(6) + 10 C37(4) + 10 C38(15) + 10 C39(15)
   + 10 C41(14) + 10 C43(17) + 10 C44(12) + 10 C46(13) + 10 C47(13)
   + 10 C50(11) + 10 C51(12) + 10 C52(13) + 10 C54(11) + 10 C55(11)
   + 10 C56(13) + 10 C57(14) + 10 C58(10) + 10 C59(10) + 10 C61(12)
   + 10 C64(11) + 10 C65(9) + 10 C66(10) + 10 C67(11) + 10 C68(13)
   + 10 C69(6) + 10 C70(11) + 10 C71(13) + 10 C72(7) + 10 C73(8)
   + 10 C75(12) + 10 C78(9) + 10 C79(12) + 10 C80(9) + 10 C81(11)
   + 10 C82(12) + 10 C84(10) + 10 C85(10) + 10 C86(7) + 10 C87(10)
   + 10 C88(12) + 10 C94(14) + 10 C97(4) + 10 C113(12) + 10 C115(6)
   + 10 C132(17) + 10 C136(11) + 10 C148(4) + 10 C164(16) + 10 C184(3)
   + 10 C212(15) + 10 C215(14) + 10 C272(14) + 10 C289(7) <= 10
 c2: 13 C1(14) + 13 C2(14) + 13 C6(11) + 13 C10(9) + 13 C15(7) + 13 C27(8)
   + 13 C30(6) + 13 C38(15) + 13 C39(15) + 13 C43(17) + 13 C44(12)
   + 13 C49(14) + 13 C52(13) + 13 C53(11) + 13 C57(14) + 13 C66(10)
   + 13 C67(11) + 13 C77(11) + 13 C91(12) + 13 C92(12) + 13 C103(8)
   + 13 C104(13) + 13 C107(7) + 13 C116(11) + 13 C127(9) + 13 C132(17)
   + 13 C142(5) + 13 C160(8) + 13 C161(14) + 13 C162(14) + 13 C166(13)
   + 13 C167(9) + 13 C172(10) + 13 C174(10) + 13 C177(3) + 13 C201(11)
   + 13 C209(19) + 13 C210(18) + 13 C214(15) + 13 C215(14) + 13 C220(14)
   + 13 C223(13) + 13 C227(12) + 13 C252(5) + 13 C257(15) + 13 C267(13)
   + 13 C268(13) + 13 C272(14) + 13 C276(15) + 13 C279(10) + 13 C281(6)
   + 13 C283(3) + 13 C287(10) + 13 C290(12) + 13 C291(7) + 13 C295(10)
   + 13 C298(8) + 13 C299(5) + 13 C301(5) + 13 C302(10) + 13 C303(10)
   + 13 C304(9) + 13 C305(7) + 13 C306(9) + 13 C309(7) <= 13
 c3: 3 C1(14) + 3 C2(14) + 3 C10(9) + 3 C13(3) + 3 C21(6) + 3 C22(2)
   + 3 C28(7) + 3 C37(4) + 3 C38(15) + 3 C42(14) + 3 C44(12) + 3 C45(9)
   + 3 C48(13) + 3 C52(13) + 3 C54(11) + 3 C55(11) + 3 C59(10) + 3 C60(13)
   + 3 C62(12) + 3 C63(10) + 3 C64(11) + 3 C65(9) + 3 C68(13) + 3 C73(8)
   + 3 C74(9) + 3 C76(9) + 3 C77(11) + 3 C78(9) + 3 C82(12) + 3 C83(10)
   + 3 C84(10) + 3 C85(10) + 3 C87(10) + 3 C88(12) + 3 C105(12)
   + 3 C111(11) + 3 C113(12) + 3 C114(7) + 3 C116(11) + 3 C126(12)
   + 3 C148(4) + 3 C168(6) + 3 C170(5) + 3 C184(3) + 3 C209(19)
   + 3 C210(18) + 3 C213(15) + 3 C215(14) + 3 C216(12) + 3 C217(14)
   + 3 C220(14) + 3 C221(11) + 3 C223(13) + 3 C225(15) + 3 C227(12)
   + 3 C228(11) + 3 C232(10) + 3 C235(7) + 3 C238(5) + 3 C242(11)
   + 3 C251(6) + 3 C254(5) + 3 C256(8) + 3 C257(15) + 3 C262(7)
   + 3 C275(11) + 3 C276(15) + 3 C289(7) <= 3
 c4: 9 C43(17) + 9 C48(13) + 9 C52(13) + 9 C63(10) + 9 C65(9) + 9 C78(9)
   + 2 C85(10) + 9 C107(7) + 9 C164(16) + 8 C166(13) + 9 C208(4)
   + 3 C209(19) + 9 C222(11) + 9 C224(6) + 9 C227(12) + 9 C229(6)
   + 9 C230(14) + 9 C231(3) + 9 C233(4) + 9 C234(8) + 9 C235(7)
   + 9 C236(10) + 9 C240(6) + 9 C241(9) + 2 C242(11) + 9 C244(4)
   + 9 C245(6) + 9 C246(8) + 9 C247(7) + 9 C250(5) + 9 C252(5) + 9 C253(4)
   + 9 C255(5) + 9 C256(8) + 9 C261(14) + 9 C265(5) + 7 C293(5) <= 9
 c5: 4 C0(6) + 4 C1(14) + 4 C6(11) + 4 C51(12) + 4 C55(11) + 4 C100(12)
   + 4 C104(13) + 4 C148(4) + 4 C169(9) + 4 C170(5) + 4 C222(11)
   + 4 C223(13) + 4 C224(6) + 4 C234(8) + 4 C236(10) + 4 C242(11)
   + 4 C244(4) + 4 C250(5) + 4 C255(5) + 4 C265(5) + 4 C277(11) <= 4
 c6: <= 0
 c7: 8 C0(6) + 8 C1(14) + 8 C5(7) + 8 C6(11) + 8 C8(3) + 8 C17(3)
   + 8 C27(8) + 8 C28(7) + 8 C30(6) + 8 C31(4) + 8 C33(4) + 8 C38(15)
   + 8 C39(15) + 8 C43(17) + 8 C44(12) + 8 C46(13) + 8 C49(14) + 8 C53(11)
   + 6 C55(11) + 8 C71(13) + 8 C78(9) + 8 C81(11) + 8 C85(10) + 8 C87(10)
   + 8 C96(6) + 6 C104(13) + 8 C109(12) + 8 C122(4) + 8 C125(7)
   + 8 C126(12) + 3 C128(6) + 8 C129(11) + 8 C132(17) + 8 C136(11)
   + 8 C139(7) + 8 C166(13) + 8 C173(6) + 8 C190(4) + 3 C209(19)
   + 3 C210(18) + 8 C213(15) + 8 C214(15) + 8 C215(14) + 8 C220(14)
   + 8 C222(11) + 3 C225(15) + 8 C229(6) + 8 C236(10) + 8 C242(11)
   + 8 C246(8) + 8 C248(10) + 8 C261(14) + 4 C267(13) + 4 C268(13)
   + 8 C271(7) + 8 C272(14) + 8 C275(11) + 8 C276(15) + 3 C277(11)
   + 7 C279(10) + 8 C290(12) + 8 C298(8) + 8 C302(10) <= 8
 c8: 11 C0(6) + 4 C1(14) + 4 C2(14) + 11 C5(7) + 4 C6(11) + 11 C21(6)
   + 11 C41(14) + 11 C42(14) + 11 C44(12) + 11 C47(13) + 11 C48(13)
   + 11 C49(14) + 11 C50(11) + 11 C54(11) + 11 C61(12) + 11 C62(12)
   + 11 C63(10) + 11 C72(7) + 11 C74(9) + 11 C100(12) + 11 C105(12)
   + 11 C111(11) + 11 C118(7) + 11 C138(3) + 11 C143(5) + 11 C145(4)
   + 11 C146(6) + 11 C150(5) + 11 C151(7) + 11 C156(6) + 11 C182(6)
   + 11 C188(4) + 11 C192(2) + 11 C215(14) + 11 C220(14) + 11 C221(11)
   + 11 C225(15) + 11 C272(14) + 11 C274(7) + 11 C275(11) + 11 C276(15)
   + 11 C287(10) <= 11
 c9: 12 C1(14) + 12 C2(14) + 12 C5(7) + 12 C9(8) + 12 C11(4) + 12 C14(3)
   + 12 C17(3) + 12 C18(4) + 12 C19(3) + 12 C20(3) + 12 C37(4) + 12 C38(15)
   + 12 C39(15) + 12 C41(14) + 12 C42(14) + 12 C43(17) + 12 C45(9)
   + 12 C47(13) + 12 C49(14) + 12 C51(12) + 12 C53(11) + 12 C57(14)
   + 12 C58(10) + 12 C65(9) + 12 C67(11) + 12 C68(13) + 12 C69(6)
   + 12 C72(7) + 12 C73(8) + 12 C75(12) + 12 C76(9) + 12 C79(12)
   + 12 C80(9) + 12 C81(11) + 12 C82(12) + 12 C83(10) + 12 C84(10)
   + 12 C85(10) + 12 C86(7) + 12 C87(10) + 12 C88(12) + 12 C89(8)
   + 12 C94(14) + 12 C96(6) + 12 C104(13) + 12 C109(12) + 12 C164(16)
   + 12 C165(13) + 12 C166(13) + 12 C173(6) + 12 C178(8) + 12 C214(15)
   + 12 C216(12) + 7 C217(14) + 12 C222(11) + 12 C224(6) + 12 C226(12)
   + 12 C229(6) + 12 C233(4) + 12 C234(8) + 12 C235(7) + 12 C236(10)
   + 12 C237(3) + 12 C240(6) + 12 C242(11) + 12 C244(4) + 12 C249(5)
   + 12 C256(8) + 12 C258(8) + 12 C259(8) + 12 C262(7) + 12 C268(13)
   + 12 C271(7) + 12 C277(11) <= 12
 c10: 6 C41(14) + 6 C48(13) + 6 C50(11) + 6 C54(11) + 6 C57(14) + 6 C60(13)
   + 6 C90(6) + 6 C91(12) + 6 C92(12) + 6 C94(14) + 6 C95(8) + 6 C100(12)
   + 6 C101(6) + 6 C104(13) + 6 C105(12) + 6 C106(7) + 6 C107(7)
   + 6 C108(8) + 6 C110(3) + 6 C112(5) + 6 C117(4) + 6 C120(3) + 6 C122(4)
   + 6 C123(2) + 6 C124(4) + 6 C125(7) + 6 C126(12) + 6 C129(11)
   + 6 C130(10) + 6 C132(17) + 6 C159(4) + 6 C161(14) + 6 C162(14)
   + 6 C172(10) + 6 C175(8) + 6 C176(8) + 6 C180(8) + 6 C198(6) + 6 C200(5)
   + 6 C209(19) + 6 C210(18) + 6 C212(15) + 6 C213(15) + 6 C218(8)
   + 6 C220(14) + 6 C221(11) + 6 C225(15) + 6 C227(12) + 6 C230(14)
   + 6 C261(14) + 6 C285(3) + 6 C296(4) + 6 C300(5) + 6 C307(5) <= 6
 c11: <= 0
 c12: 15 C29(6) + 15 C43(17) + 15 C45(9) + 15 C46(13) + 15 C47(13)
   + 15 C49(14) + 15 C52(13) + 10 C53(11) + 10 C55(11) + 15 C56(13)
   + 15 C59(10) + 15 C60(13) + 15 C62(12) + 15 C64(11) + 15 C66(10)
   + 15 C68(13) + 15 C70(11) + 10 C73(8) + 9 C74(9) + 15 C75(12) + 9 C76(9)
   + 15 C77(11) + 15 C78(9) + 15 C79(12) + 10 C83(10) + 15 C84(10)
   + 10 C87(10) + 15 C88(12) + 10 C89(8) + 15 C100(12) + 10 C104(13)
   + 10 C105(12) + 15 C109(12) + 15 C111(11) + 15 C116(11) + 15 C118(7)
   + 10 C121(6) + 15 C126(12) + 10 C127(9) + 10 C128(6) + 10 C129(11)
   + 10 C130(10) + 15 C131(4) + 15 C132(17) + 15 C136(11) + 15 C139(7)
   + 15 C140(3) + 15 C143(5) + 15 C151(7) + 15 C153(7) + 15 C154(6)
   + 15 C155(6) + 9 C161(14) + 10 C171(3) + 10 C175(8) + 9 C186(5)
   + 15 C196(3) + 10 C209(19) + 10 C210(18) + 15 C214(15) + 15 C215(14)
   + 15 C216(12) + 15 C217(14) + 10 C220(14) + 10 C223(13) + 10 C225(15)
   + 10 C226(12) + 15 C232(10) + 15 C243(7) + 10 C245(6) + 10 C246(8)
   + 10 C248(10) + 15 C249(5) + 15 C251(6) + 10 C257(15) + 15 C258(8)
   + 9 C260(8) + 10 C261(14) + 10 C262(7) + 10 C263(12) + 10 C264(12)
   + 15 C276(15) + 15 C279(10) + 15 C290(12) + 10 C302(10) + 9 C306(9)
   <= 15
 c13: 8 C44(12) + 8 C46(13) + 8 C56(13) + 8 C59(10) + 8 C61(12) + 8 C63(10)
   + 8 C100(12) + 8 C153(7) + 8 C156(6) + 8 C168(6) + 8 C169(9) + 8 C177(3)
   + 8 C217(14) + 8 C218(8) + 8 C220(14) + 8 C227(12) + 8 C266(6)
   + 8 C267(13) + 8 C272(14) + 8 C273(9) + 8 C274(7) + 8 C276(15)
   + 8 C279(10) + 8 C281(6) + 8 C282(5) + 8 C283(3) + 8 C284(7) + 8 C286(2)
   + 8 C288(6) + 8 C289(7) + 8 C290(12) + 8 C291(7) + 8 C295(10)
   + 8 C297(8) + 8 C301(5) + 8 C302(10) + 8 C303(10) + 8 C304(9)
   + 8 C305(7) + 8 C306(9) + 8 C308(6) + 8 C309(7) <= 8
 c14: <= 0
 c15: 9 C35(4) + 9 C43(17) + 9 C46(13) + 9 C47(13) + 9 C48(13) + 9 C49(14)
   + 9 C50(11) + 9 C51(12) + 9 C53(11) + 9 C55(11) + 9 C56(13) + 9 C57(14)
   + 4 C58(10) + 9 C59(10) + 9 C60(13) + 9 C61(12) + 9 C62(12) + 9 C63(10)
   + 9 C65(9) + 9 C66(10) + 9 C67(11) + 9 C68(13) + 9 C69(6) + 9 C70(11)
   + 9 C71(13) + 9 C72(7) + 9 C74(9) + 9 C75(12) + 9 C76(9) + 9 C77(11)
   + 9 C78(9) + 4 C79(12) + 4 C80(9) + 9 C81(11) + 9 C82(12) + 9 C83(10)
   + 9 C84(10) + 9 C85(10) + 9 C86(7) + 9 C88(12) + 9 C89(8) + 9 C90(6)
   + 9 C91(12) + 9 C92(12) + 9 C100(12) + 9 C109(12) + 9 C126(12)
   + 4 C127(9) + 4 C129(11) + 9 C130(10) + 4 C132(17) + 9 C139(7)
   + 9 C155(6) + 4 C161(14) + 4 C162(14) + 9 C164(16) + 9 C165(13)
   + 4 C166(13) + 4 C172(10) + 4 C178(8) + 9 C179(6) + 4 C186(5)
   + 4 C189(8) + 9 C197(9) + 4 C201(11) + 4 C206(6) + 4 C209(19)
   + 4 C210(18) + 9 C212(15) + 9 C213(15) + 9 C214(15) + 9 C216(12)
   + 9 C218(8) + 9 C219(6) + 9 C220(14) + 5 C226(12) + 5 C228(11)
   + 5 C230(14) + 4 C241(9) + 4 C242(11) + 4 C247(7) + 5 C248(10)
   + 9 C250(5) + 4 C256(8) + 4 C257(15) + 5 C259(8) + 5 C261(14)
   + 4 C263(12) + 9 C264(12) + 9 C273(9) + 9 C275(11) + 9 C276(15) <= 9
 c16: 5 C1(14) + 5 C2(14) + 5 C5(7) + 5 C9(8) + 5 C38(15) + 5 C39(15)
   + 5 C43(17) + 5 C46(13) + 5 C90(6) + 5 C91(12) + 5 C92(12) + 5 C132(17)
   + 5 C136(11) + 5 C139(7) + 5 C141(4) + 5 C143(5) + 5 C145(4) + 5 C150(5)
   + 5 C151(7) + 5 C152(6) + 5 C153(7) + 5 C154(6) + 5 C155(6) + 5 C156(6)
   + 5 C157(5) + 5 C161(14) + 5 C162(14) + 5 C166(13) + 5 C209(19)
   + 5 C210(18) + 5 C214(15) + 5 C217(14) + 5 C219(6) + 5 C221(11)
   + 5 C222(11) + 5 C223(13) + 5 C225(15) + 5 C226(12) + 5 C227(12)
   + 5 C228(11) + 5 C230(14) + 4 C234(8) + 5 C236(10) + 5 C248(10)
   + 5 C257(15) + 5 C259(8) + 5 C261(14) + 5 C264(12) + 5 C267(13)
   + 5 C268(13) + 5 C271(7) <= 5
 c17: 10 C6(11) + 10 C12(3) + 10 C26(6) + 5 C41(14) + 10 C44(12)
   + 10 C46(13) + 10 C50(11) + 10 C53(11) + 10 C56(13) + 8 C59(10)
   + 10 C61(12) + 10 C64(11) + 10 C68(13) + 10 C70(11) + 10 C71(13)
   + 10 C74(9) + 10 C76(9) + 10 C82(12) + 5 C94(14) + 10 C99(5)
   + 10 C101(6) + 10 C104(13) + 10 C105(12) + 5 C108(8) + 8 C109(12)
   + 10 C111(11) + 10 C113(12) + 10 C116(11) + 10 C125(7) + 10 C136(11)
   + 10 C141(4) + 10 C145(4) + 10 C146(6) + 10 C151(7) + 10 C153(7)
   + 10 C158(6) + 10 C167(9) + 10 C169(9) + 10 C172(10) + 10 C179(6)
   + 5 C180(8) + 10 C182(6) + 5 C185(8) + 10 C187(5) + 10 C188(4)
   + 10 C189(8) + 10 C190(4) + 10 C193(5) + 10 C195(3) + 10 C197(9)
   + 10 C199(3) + 10 C200(5) + 10 C203(4) + 10 C204(3) + 5 C205(7)
   + 10 C207(9) + 5 C212(15) + 10 C215(14) + 10 C221(11) + 10 C232(10)
   + 5 C260(8) + 10 C266(6) + 5 C267(13) + 5 C268(13) + 10 C272(14)
   + 5 C273(9) + 10 C287(10) + 10 C289(7) + 10 C294(6) + 10 C295(10)
   + 10 C296(4) <= 10
 c18: 7 C2(14) + 7 C6(11) + 7 C7(4) + 7 C9(8) + 7 C16(3) + 7 C26(6)
   + 7 C27(8) + 7 C29(6) + 7 C30(6) + 7 C31(4) + 7 C32(5) + 7 C33(4)
   + 7 C38(15) + 7 C39(15) + 7 C44(12) + 7 C45(9) + 5 C47(13) + 7 C51(12)
   + 6 C56(13) + 7 C57(14) + 6 C58(10) + 7 C61(12) + 7 C64(11) + 7 C68(13)
   + 7 C70(11) + 7 C71(13) + 7 C75(12) + 6 C79(12) + 6 C81(11) + 7 C82(12)
   + 7 C83(10) + 6 C84(10) + 7 C88(12) + 7 C90(6) + 7 C91(12) + 7 C92(12)
   + 7 C97(4) + 7 C98(4) + 5 C100(12) + 7 C102(5) + 6 C106(7) + 6 C108(8)
   + 7 C109(12) + 7 C113(12) + 6 C115(6) + 7 C117(4) + 6 C118(7)
   + 7 C119(2) + 7 C122(4) + 7 C125(7) + 7 C126(12) + 7 C128(6)
   + 7 C132(17) + 7 C136(11) + 7 C143(5) + 7 C151(7) + 7 C153(7)
   + 7 C154(6) + 7 C162(14) + 7 C167(9) + 7 C168(6) + 5 C174(10)
   + 6 C176(8) + 5 C180(8) + 6 C182(6) + 6 C187(5) + 6 C198(6) + 7 C209(19)
   + 7 C210(18) + 7 C215(14) + 7 C216(12) + 7 C225(15) + 7 C229(6)
   + 7 C232(10) + 7 C243(7) + 7 C257(15) + 7 C258(8) + 7 C263(12)
   + 6 C267(13) + 6 C268(13) + 7 C272(14) + 5 C275(11) + 7 C276(15)
   + 7 C277(11) + 6 C284(7) + 6 C290(12) + 6 C292(4) + 7 C293(5)
   + 7 C294(6) + 7 C295(10) + 7 C297(8) + 7 C298(8) + 7 C300(5)
   + 7 C303(10) + 6 C304(9) <= 7
 c19: <= 0
 c20: 12 C0(6) + 12 C1(14) + 12 C2(14) + 12 C10(9) + 12 C18(4) + 12 C21(6)
   + 12 C28(7) + 12 C39(15) + 12 C42(14) + 12 C47(13) + 12 C48(13)
   + 12 C49(14) + 12 C50(11) + 12 C58(10) + 12 C60(13) + 12 C61(12)
   + 12 C62(12) + 12 C63(10) + 12 C66(10) + 12 C74(9) + 12 C76(9)
   + 12 C80(9) + 12 C81(11) + 12 C92(12) + 12 C95(8) + 12 C97(4)
   + 12 C105(12) + 12 C111(11) + 12 C112(5) + 12 C114(7) + 12 C115(6)
   + 12 C116(11) + 12 C120(3) + 12 C124(4) + 12 C126(12) + 12 C132(17)
   + 12 C134(3) + 12 C136(11) + 12 C162(14) + 12 C165(13) + 10 C167(9)
   + 12 C209(19) + 12 C210(18) + 12 C213(15) + 12 C216(12) + 12 C217(14)
   + 12 C220(14) + 12 C221(11) + 12 C225(15) + 12 C227(12) + 12 C228(11)
   + 12 C230(14) + 12 C232(10) + 12 C235(7) + 12 C238(5) + 12 C239(4)
   + 12 C243(7) + 12 C254(5) + 12 C256(8) + 12 C270(7) + 12 C272(14)
   + 12 C276(15) + 12 C279(10) + 12 C287(10) + 12 C290(12) <= 12
 c21: 10 C1(14) + 10 C2(14) + 10 C12(3) + 10 C38(15) + 10 C39(15)
   + 10 C42(14) + 10 C43(17) + 10 C47(13) + 10 C48(13) + 10 C52(13)
   + 10 C56(13) + 10 C64(11) + 10 C91(12) + 10 C92(12) + 7 C100(12)
   + 10 C103(8) + 10 C105(12) + 7 C106(7) + 10 C111(11) + 10 C116(11)
   + 10 C118(7) + 10 C128(6) + 10 C132(17) + 10 C139(7) + 10 C158(6)
   + 10 C162(14) + 10 C165(13) + 10 C166(13) + 10 C174(10) + 10 C176(8)
   + 10 C179(6) + 10 C183(3) + 10 C193(5) + 10 C198(6) + 10 C204(3)
   + 10 C206(6) + 10 C209(19) + 10 C210(18) + 10 C213(15) + 10 C214(15)
   + 10 C218(8) + 7 C219(6) + 10 C225(15) + 7 C259(8) + 10 C266(6)
   + 5 C267(13) + 5 C268(13) + 10 C270(7) + 7 C274(7) + 10 C275(11)
   + 10 C277(11) + 10 C280(4) + 7 C281(6) + 10 C282(5) + 10 C285(3)
   + 10 C287(10) + 10 C290(12) + 10 C291(7) + 10 C294(6) + 10 C296(4)
   + 5 C299(5) + 10 C301(5) + 7 C302(10) + 7 C305(7) + 10 C307(5)
   + 10 C308(6) + 10 C309(7) <= 10
 c22: 10 C0(6) + 10 C1(14) + 10 C2(14) + 10 C4(4) + 10 C7(4) + 10 C15(7)
   + 10 C27(8) + 10 C38(15) + 10 C39(15) + 10 C41(14) + 10 C45(9)
   + 5 C46(13) + 7 C52(13) + 5 C53(11) + 5 C54(11) + 10 C57(14) + 7 C59(10)
   + 10 C60(13) + 5 C61(12) + 10 C66(10) + 10 C67(11) + 10 C91(12)
   + 10 C92(12) + 10 C94(14) + 10 C98(4) + 7 C103(8) + 5 C104(13)
   + 10 C107(7) + 7 C109(12) + 5 C113(12) + 10 C114(7) + 5 C116(11)
   + 10 C129(11) + 10 C130(10) + 10 C132(17) + 10 C137(3) + 10 C162(14)
   + 10 C164(16) + 10 C168(6) + 7 C174(10) + 10 C180(8) + 10 C185(8)
   + 10 C205(7) + 10 C206(6) + 10 C207(9) + 10 C209(19) + 10 C210(18)
   + 10 C212(15) + 10 C216(12) + 5 C217(14) + 7 C223(13) + 10 C225(15)
   + 10 C227(12) + 7 C228(11) + 10 C230(14) + 7 C257(15) + 10 C260(8)
   + 10 C261(14) + 10 C263(12) + 7 C264(12) + 10 C265(5) + 10 C267(13)
   + 10 C268(13) + 10 C273(9) + 8 C274(7) + 4 C276(15) + 5 C279(10)
   + 10 C280(4) + 7 C284(7) + 5 C287(10) + 7 C288(6) + 5 C289(7)
   + 10 C290(12) + 10 C291(7) + 5 C295(10) + 5 C297(8) + 10 C298(8)
   + 10 C299(5) + 10 C301(5) + 7 C302(10) + 7 C303(10) + 7 C304(9)
   + 7 C305(7) + 7 C306(9) + 10 C307(5) + 10 C308(6) + 7 C309(7) <= 10
 c23: 11 C1(14) + 11 C2(14) + 11 C6(11) + 11 C9(8) + 11 C10(9) + 11 C15(7)
   + 4 C21(6) + 11 C23(3) + 11 C25(6) + 11 C26(6) + 11 C27(8) + 11 C28(7)
   + 11 C29(6) + 11 C30(6) + 11 C32(5) + 11 C36(5) + 11 C38(15)
   + 11 C39(15) + 11 C41(14) + 11 C42(14) + 11 C44(12) + 11 C51(12)
   + 11 C54(11) + 11 C59(10) + 11 C60(13) + 4 C62(12) + 11 C64(11)
   + 11 C67(11) + 11 C68(13) + 11 C71(13) + 4 C72(7) + 11 C75(12)
   + 11 C77(11) + 11 C85(10) + 11 C86(7) + 11 C87(10) + 11 C88(12)
   + 11 C89(8) + 11 C91(12) + 11 C92(12) + 11 C94(14) + 11 C95(8)
   + 11 C102(5) + 11 C105(12) + 11 C109(12) + 11 C111(11) + 11 C113(12)
   + 11 C114(7) + 11 C116(11) + 11 C118(7) + 11 C121(6) + 11 C126(12)
   + 11 C127(9) + 11 C129(11) + 11 C130(10) + 11 C131(4) + 11 C132(17)
   + 11 C136(11) + 11 C152(6) + 11 C154(6) + 11 C161(14) + 11 C162(14)
   + 11 C164(16) + 11 C165(13) + 11 C167(9) + 11 C172(10) + 11 C174(10)
   + 11 C175(8) + 11 C176(8) + 11 C179(6) + 11 C185(8) + 11 C189(8)
   + 11 C191(10) + 11 C193(5) + 11 C197(9) + 11 C201(11) + 11 C202(5)
   + 11 C205(7) + 11 C207(9) + 11 C209(19) + 11 C210(18) + 11 C212(15)
   + 11 C213(15) + 11 C215(14) + 11 C222(11) + 4 C225(15) + 11 C230(14)
   + 11 C236(10) + 11 C246(8) + 11 C257(15) + 11 C261(14) + 11 C263(12)
   + 11 C264(12) + 11 C267(13) + 11 C268(13) + 11 C270(7) + 11 C272(14)
   + 11 C277(11) <= 11
 c24: 10 C10(9) + 10 C41(14) + 10 C42(14) + 10 C46(13) + 10 C47(13)
   + 10 C48(13) + 10 C50(11) + 8 C51(12) + 10 C52(13) + 8 C57(14)
   + 10 C60(13) + 10 C90(6) + 10 C91(12) + 10 C94(14) + 10 C96(6)
   + 10 C99(5) + 10 C100(12) + 6 C101(6) + 10 C103(8) + 9 C106(7)
   + 10 C110(3) + 8 C113(12) + 9 C115(6) + 8 C117(4) + 10 C138(3)
   + 10 C142(5) + 10 C146(6) + 10 C149(3) + 10 C150(5) + 10 C158(6)
   + 10 C159(4) + 6 C164(16) + 6 C165(13) + 10 C169(9) + 10 C174(10)
   + 9 C176(8) + 10 C180(8) + 9 C182(6) + 6 C185(8) + 9 C187(5)
   + 10 C191(10) + 10 C197(9) + 9 C198(6) + 10 C207(9) + 10 C212(15)
   + 10 C217(14) + 10 C221(11) + 10 C271(7) + 8 C272(14) + 10 C275(11)
   + 10 C278(3) + 3 C287(10) + 9 C292(4) + 8 C293(5) + 8 C295(10)
   + 8 C300(5) + 9 C304(9) <= 10
 c25: 10 C1(14) + 10 C2(14) + 10 C11(4) + 10 C18(4) + 10 C20(3)
   + 10 C38(15) + 10 C39(15) + 10 C41(14) + 10 C42(14) + 10 C46(13)
   + 10 C49(14) + 10 C51(12) + 10 C53(11) + 10 C54(11) + 10 C55(11)
   + 5 C57(14) + 10 C58(10) + 10 C60(13) + 10 C62(12) + 10 C65(9)
   + 5 C66(10) + 5 C67(11) + 10 C68(13) + 10 C73(8) + 10 C75(12)
   + 10 C76(9) + 10 C77(11) + 10 C79(12) + 10 C80(9) + 10 C83(10)
   + 10 C84(10) + 10 C86(7) + 10 C87(10) + 10 C88(12) + 10 C89(8)
   + 10 C94(14) + 10 C95(8) + 10 C99(5) + 10 C104(13) + 10 C108(8)
   + 10 C121(6) + 10 C132(17) + 10 C155(6) + 10 C160(8) + 10 C161(14)
   + 10 C164(16) + 10 C165(13) + 10 C169(9) + 10 C178(8) + 10 C191(10)
   + 10 C201(11) + 10 C209(19) + 10 C210(18) + 10 C212(15) + 10 C213(15)
   + 10 C217(14) + 10 C225(15) + 8 C228(11) + 5 C230(14) + 10 C234(8)
   + 10 C245(6) + 10 C249(5) + 10 C250(5) + 7 C258(8) + 7 C259(8)
   + 8 C264(12) + 10 C270(7) + 10 C276(15) + 10 C279(10) + 5 C290(12)
   + 10 C297(8) + 10 C298(8) + 8 C303(10) + 8 C306(9) + 8 C309(7) <= 10
 c26: 6 C9(8) + 6 C15(7) + 5 C38(15) + 3 C39(15) + 6 C42(14) + 5 C43(17)
   + 6 C44(12) + 6 C46(13) + 6 C48(13) + 6 C50(11) + 6 C51(12) + 6 C56(13)
   + 6 C57(14) + 6 C63(10) + 6 C68(13) + 6 C70(11) + 6 C71(13) + 6 C74(9)
   + 6 C75(12) + 6 C79(12) + 3 C81(11) + 6 C82(12) + 6 C112(5) + 6 C124(4)
   + 6 C173(6) + 6 C208(4) + 6 C209(19) + 6 C210(18) + 5 C212(15)
   + 6 C213(15) + 6 C214(15) + 6 C215(14) + 6 C216(12) + 6 C217(14)
   + 6 C221(11) + 6 C222(11) + 6 C226(12) + 6 C227(12) + 6 C232(10)
   + 6 C238(5) + 6 C239(4) + 6 C241(9) + 6 C243(7) + 6 C248(10)
   + 6 C263(12) + 3 C272(14) + 6 C275(11) + 6 C287(10) <= 6
 c27: 6 C9(8) + 6 C21(6) + 6 C32(5) + 6 C41(14) + 6 C42(14) + 6 C44(12)
   + 6 C48(13) + 6 C50(11) + 6 C51(12) + 6 C56(13) + 6 C57(14) + 6 C58(10)
   + 6 C61(12) + 6 C64(11) + 6 C68(13) + 6 C70(11) + 6 C71(13) + 6 C74(9)
   + 6 C75(12) + 6 C76(9) + 6 C79(12) + 6 C80(9) + 6 C81(11) + 6 C82(12)
   + 6 C84(10) + 6 C88(12) + 6 C91(12) + 6 C92(12) + 6 C94(14) + 6 C95(8)
   + 6 C101(6) + 6 C102(5) + 6 C108(8) + 6 C113(12) + 6 C114(7) + 6 C125(7)
   + 6 C136(11) + 6 C146(6) + 6 C147(3) + 6 C151(7) + 6 C153(7) + 6 C158(6)
   + 6 C160(8) + 6 C161(14) + 6 C162(14) + 6 C164(16) + 6 C165(13)
   + 6 C167(9) + 6 C170(5) + 6 C172(10) + 6 C178(8) + 6 C185(8) + 6 C186(5)
   + 6 C189(8) + 6 C191(10) + 6 C195(3) + 6 C197(9) + 6 C200(5)
   + 6 C201(11) + 6 C202(5) + 6 C203(4) + 6 C205(7) + 6 C207(9)
   + 6 C212(15) + 6 C221(11) + 6 C228(11) + 6 C238(5) + 6 C239(4)
   + 6 C243(7) + 6 C254(5) + 6 C260(8) + 6 C270(7) + 6 C272(14) + 6 C273(9)
   + 6 C275(11) + 6 C276(15) + 6 C284(7) + 6 C288(6) + 6 C294(6)
   + 6 C295(10) + 6 C297(8) + 6 C298(8) + 6 C303(10) + 6 C304(9)
   + 6 C306(9) <= 6
 c28: 9 C43(17) + 9 C45(9) + 9 C83(10) + 9 C99(5) + 9 C112(5) + 9 C131(4)
   + 9 C132(17) + 9 C134(3) + 9 C135(2) + 9 C140(3) + 9 C141(4) + 9 C142(5)
   + 9 C144(4) + 9 C146(6) + 9 C147(3) + 9 C149(3) + 9 C150(5) + 9 C158(6)
   + 9 C159(4) + 9 C169(9) + 9 C214(15) + 9 C222(11) + 9 C223(13)
   + 9 C224(6) + 9 C226(12) + 9 C236(10) + 9 C240(6) + 9 C241(9)
   + 9 C242(11) + 9 C247(7) + 9 C248(10) + 9 C251(6) + 9 C255(5)
   + 9 C257(15) + 9 C262(7) + 9 C263(12) + 9 C287(10) <= 9
 c29: 11 C4(4) + 11 C10(9) + 11 C15(7) + 11 C23(3) + 11 C24(3) + 11 C25(6)
   + 11 C26(6) + 11 C28(7) + 11 C29(6) + 11 C32(5) + 11 C33(4) + 11 C34(3)
   + 11 C35(4) + 11 C36(5) + 11 C43(17) + 11 C47(13) + 11 C49(14)
   + 11 C52(13) + 11 C56(13) + 11 C58(10) + 11 C64(11) + 11 C69(6)
   + 11 C70(11) + 11 C71(13) + 11 C73(8) + 11 C78(9) + 11 C79(12)
   + 11 C80(9) + 11 C81(11) + 11 C82(12) + 11 C94(14) + 11 C95(8)
   + 11 C100(12) + 11 C102(5) + 3 C109(12) + 11 C113(12) + 11 C121(6)
   + 6 C126(12) + 11 C127(9) + 11 C129(11) + 6 C130(10) + 11 C132(17)
   + 11 C136(11) + 11 C157(5) + 11 C160(8) + 11 C161(14) + 11 C162(14)
   + 11 C164(16) + 11 C165(13) + 11 C166(13) + 11 C167(9) + 11 C172(10)
   + 11 C174(10) + 11 C176(8) + 11 C178(8) + 6 C179(6) + 11 C186(5)
   + 11 C189(8) + 11 C191(10) + 11 C201(11) + 11 C202(5) + 11 C206(6)
   + 11 C207(9) + 11 C209(19) + 11 C210(18) + 11 C212(15) + 11 C213(15)
   + 11 C214(15) + 11 C218(8) + 10 C223(13) + 10 C226(12) + 10 C228(11)
   + 10 C230(14) + 11 C234(8) + 11 C241(9) + 11 C242(11) + 11 C245(6)
   + 11 C246(8) + 11 C247(7) + 10 C248(10) + 11 C256(8) + 11 C257(15)
   + 10 C259(8) + 10 C261(14) + 11 C263(12) + 6 C264(12) + 11 C274(7)
   + 3 C277(11) <= 11
 c30: 9 C5(7) + 9 C7(4) + 9 C16(3) + 9 C38(15) + 9 C39(15) + 9 C41(14)
   + 9 C42(14) + 9 C43(17) + 9 C45(9) + 9 C49(14) + 9 C50(11) + 9 C52(13)
   + 9 C56(13) + 9 C58(10) + 9 C62(12) + 8 C64(11) + 9 C66(10) + 8 C68(13)
   + 8 C70(11) + 8 C71(13) + 8 C75(12) + 9 C77(11) + 9 C78(9) + 9 C79(12)
   + 9 C80(9) + 9 C81(11) + 8 C82(12) + 9 C84(10) + 8 C88(12) + 9 C94(14)
   + 9 C96(6) + 9 C98(4) + 9 C101(6) + 9 C103(8) + 9 C106(7) + 9 C108(8)
   + 9 C111(11) + 8 C113(12) + 9 C115(6) + 9 C116(11) + 9 C118(7)
   + 8 C125(7) + 9 C137(3) + 9 C154(6) + 9 C164(16) + 9 C165(13)
   + 7 C166(13) + 9 C168(6) + 9 C172(10) + 9 C174(10) + 9 C176(8)
   + 9 C178(8) + 9 C180(8) + 9 C182(6) + 9 C185(8) + 9 C187(5) + 9 C188(4)
   + 9 C189(8) + 9 C191(10) + 9 C194(2) + 9 C196(3) + 9 C197(9) + 9 C198(6)
   + 9 C199(3) + 9 C200(5) + 9 C201(11) + 9 C202(5) + 9 C203(4) + 9 C205(7)
   + 9 C207(9) + 9 C212(15) + 9 C213(15) + 9 C214(15) + 9 C216(12)
   + 9 C221(11) + 9 C228(11) + 8 C232(10) + 8 C243(7) + 9 C249(5)
   + 9 C254(5) + 9 C258(8) + 9 C260(8) + 9 C266(6) + 9 C267(13)
   + 9 C268(13) + 9 C270(7) + 9 C271(7) + 9 C273(9) + 9 C278(3) + 9 C281(6)
   + 9 C284(7) + 9 C288(6) + 9 C290(12) + 9 C292(4) + 8 C293(5) + 8 C294(6)
   + 8 C295(10) + 8 C298(8) + 8 C300(5) + 8 C303(10) + 9 C304(9)
   + 9 C306(9) <= 9
 c31: 11 C9(8) + 11 C14(3) + 11 C49(14) + 11 C51(12) + 11 C54(11)
   + 11 C55(11) + 11 C60(13) + 11 C62(12) + 11 C65(9) + 11 C67(11)
   + 11 C69(6) + 11 C72(7) + 11 C75(12) + 11 C77(11) + 11 C79(12)
   + 11 C85(10) + 11 C86(7) + 11 C87(10) + 11 C88(12) + 11 C89(8)
   + 11 C155(6) + 11 C160(8) + 11 C161(14) + 11 C164(16) + 11 C173(6)
   + 11 C175(8) + 11 C191(10) + 11 C201(11) + 10 C217(14) + 11 C220(14)
   + 11 C222(11) + 11 C223(13) + 11 C226(12) + 11 C230(14) + 11 C234(8)
   + 11 C235(7) + 11 C236(10) + 11 C240(6) + 11 C242(11) + 11 C247(7)
   + 11 C248(10) + 11 C258(8) + 11 C261(14) + 11 C262(7) + 11 C264(12)
   + 11 C276(15) + 11 C277(11) + 11 C282(5) + 11 C289(7) + 10 C297(8)
   + 8 C303(10) <= 11
 c32: 5 C2(14) + 5 C34(3) + 5 C35(4) + 5 C36(5) + 5 C41(14) + 5 C48(13)
   + 5 C53(11) + 5 C55(11) + 5 C63(10) + 5 C65(9) + 5 C73(8) + 5 C83(10)
   + 5 C85(10) + 5 C87(10) + 5 C89(8) + 5 C94(14) + 5 C104(13) + 5 C105(12)
   + 5 C107(7) + 5 C121(6) + 5 C127(9) + 5 C128(6) + 5 C129(11)
   + 5 C130(10) + 5 C139(7) + 5 C144(4) + 5 C152(6) + 5 C156(6) + 5 C157(5)
   + 3 C162(14) + 5 C164(16) + 5 C167(9) + 5 C169(9) + 5 C170(5)
   + 5 C171(3) + 5 C173(6) + 5 C175(8) + 5 C190(4) + 5 C209(19)
   + 5 C210(18) + 5 C212(15) + 5 C220(14) + 5 C222(11) + 5 C223(13)
   + 5 C224(6) + 5 C225(15) + 5 C226(12) + 5 C227(12) + 5 C230(14)
   + 5 C235(7) + 5 C236(10) + 5 C240(6) + 5 C241(9) + 5 C242(11)
   + 5 C245(6) + 5 C246(8) + 5 C247(7) + 5 C248(10) + 5 C255(5) + 5 C256(8)
   + 5 C257(15) + 5 C261(14) + 5 C262(7) + 5 C263(12) + 5 C264(12)
   + 5 C266(6) + 5 C267(13) + 5 C268(13) + 5 C277(11) + 5 C302(10) <= 5
 c33: 8 C5(7) + 8 C6(11) + 8 C11(4) + 8 C13(3) + 8 C19(3) + 8 C27(8)
   + 8 C43(17) + 8 C45(9) + 8 C47(13) + 8 C53(11) + 8 C55(11) + 8 C61(12)
   + 8 C83(10) + 8 C96(6) + 8 C100(12) + 8 C104(13) + 8 C106(7)
   + 8 C109(12) + 8 C144(4) + 8 C160(8) + 8 C161(14) + 8 C166(13)
   + 8 C181(4) + 5 C213(15) + 8 C214(15) + 8 C215(14) + 8 C216(12)
   + 8 C217(14) + 8 C218(8) + 8 C219(6) + 8 C231(3) + 8 C237(3)
   + 8 C257(15) + 8 C258(8) + 8 C259(8) + 8 C271(7) + 8 C273(9) + 8 C274(7)
   + 8 C279(10) + 5 C280(4) + 8 C281(6) + 5 C291(7) + 8 C299(5)
   + 8 C302(10) + 8 C305(7) + 5 C308(6) <= 8
 c34: 8 C6(11) + 8 C10(9) + 8 C25(6) + 8 C42(14) + 8 C43(17) + 8 C46(13)
   + 8 C48(13) + 8 C49(14) + 8 C52(13) + 8 C54(11) + 8 C56(13) + 5 C57(14)
   + 8 C59(10) + 5 C60(13) + 8 C61(12) + 8 C62(12) + 8 C63(10) + 5 C66(10)
   + 5 C67(11) + 8 C70(11) + 8 C71(13) + 8 C77(11) + 8 C82(12) + 8 C103(8)
   + 8 C105(12) + 5 C107(7) + 8 C108(8) + 8 C109(12) + 8 C111(11)
   + 8 C126(12) + 8 C127(9) + 5 C129(11) + 5 C130(10) + 8 C142(5)
   + 8 C152(6) + 8 C156(6) + 8 C157(5) + 8 C160(8) + 8 C161(14)
   + 5 C164(16) + 8 C165(13) + 8 C166(13) + 8 C169(9) + 8 C174(10)
   + 8 C175(8) + 8 C178(8) + 8 C181(4) + 8 C183(3) + 8 C191(10) + 8 C197(9)
   + 8 C201(11) + 8 C206(6) + 8 C213(15) + 8 C214(15) + 8 C215(14)
   + 8 C216(12) + 8 C217(14) + 8 C219(6) + 8 C220(14) + 8 C223(13)
   + 8 C226(12) + 5 C227(12) + 8 C228(11) + 8 C229(6) + 5 C230(14)
   + 8 C232(10) + 8 C233(4) + 8 C241(9) + 8 C251(6) + 8 C252(5) + 8 C253(4)
   + 8 C257(15) + 8 C260(8) + 5 C261(14) + 5 C263(12) + 8 C264(12)
   + 8 C272(14) + 5 C273(9) + 8 C275(11) + 8 C276(15) + 8 C277(11)
   + 8 C279(10) + 8 C282(5) + 8 C284(7) + 8 C288(6) + 5 C290(12)
   + 5 C291(7) + 8 C295(10) + 8 C297(8) + 8 C302(10) + 8 C303(10)
   + 8 C304(9) + 8 C305(7) + 8 C306(9) + 8 C307(5) + 5 C308(6) + 8 C309(7)
   <= 8
 c35: C0(6) + C1(14) + C2(14) + C3(1) + C4(4) + C5(7) + C6(11) + C7(4)
   + C8(3) + C9(8) + C10(9) + C11(4) + C12(3) + C13(3) + C14(3) + C15(7)
   + C16(3) + C17(3) + C18(4) + C19(3) + C20(3) + C21(6) + C22(2) + C23(3)
   + C24(3) + C25(6) + C26(6) + C27(8) + C28(7) + C29(6) + C30(6) + C31(4)
   + C32(5) + C33(4) + C34(3) + C35(4) + C36(5) = 1
 c36: C37(4) + C38(15) + C39(15) + C40(1) + C41(14) + C42(14) + C43(17)
   + C44(12) + C45(9) + C46(13) + C47(13) + C48(13) + C49(14) + C50(11)
   + C51(12) + C52(13) + C53(11) + C54(11) + C55(11) + C56(13) + C57(14)
   + C58(10) + C59(10) + C60(13) + C61(12) + C62(12) + C63(10) + C64(11)
   + C65(9) + C66(10) + C67(11) + C68(13) + C69(6) + C70(11) + C71(13)
   + C72(7) + C73(8) + C74(9) + C75(12) + C76(9) + C77(11) + C78(9)
   + C79(12) + C80(9) + C81(11) + C82(12) + C83(10) + C84(10) + C85(10)
   + C86(7) + C87(10) + C88(12) + C89(8) = 1
 c37: C90(6) + C91(12) + C92(12) + C93(1) + C94(14) + C95(8) + C96(6)
   + C97(4) + C98(4) + C99(5) + C100(12) + C101(6) + C102(5) + C103(8)
   + C104(13) + C105(12) + C106(7) + C107(7) + C108(8) + C109(12) + C110(3)
   + C111(11) + C112(5) + C113(12) + C114(7) + C115(6) + C116(11) + C117(4)
   + C118(7) + C119(2) + C120(3) + C121(6) + C122(4) + C123(2) + C124(4)
   + C125(7) + C126(12) + C127(9) + C128(6) + C129(11) + C130(10) = 1
 c38: C131(4) + C132(17) + C133(1) + C134(3) + C135(2) + C136(11) + C137(3)
   + C138(3) + C139(7) + C140(3) + C141(4) + C142(5) + C143(5) + C144(4)
   + C145(4) + C146(6) + C147(3) + C148(4) + C149(3) + C150(5) + C151(7)
   + C152(6) + C153(7) + C154(6) + C155(6) + C156(6) + C157(5) + C158(6)
   + C159(4) = 1
 c39: C160(8) + C161(14) + C162(14) + C163(1) + C164(16) + C165(13)
   + C166(13) + C167(9) + C168(6) + C169(9) + C170(5) + C171(3) + C172(10)
   + C173(6) + C174(10) + C175(8) + C176(8) + C177(3) + C178(8) + C179(6)
   + C180(8) + C181(4) + C182(6) + C183(3) + C184(3) + C185(8) + C186(5)
   + C187(5) + C188(4) + C189(8) + C190(4) + C191(10) + C192(2) + C193(5)
   + C194(2) + C195(3) + C196(3) + C197(9) + C198(6) + C199(3) + C200(5)
   + C201(11) + C202(5) + C203(4) + C204(3) + C205(7) + C206(6) + C207(9)
   = 1
 c40: C208(4) + C209(19) + C210(18) + C211(1) + C212(15) + C213(15)
   + C214(15) + C215(14) + C216(12) + C217(14) + C218(8) + C219(6)
   + C220(14) + C221(11) + C222(11) + C223(13) + C224(6) + C225(15)
   + C226(12) + C227(12) + C228(11) + C229(6) + C230(14) + C231(3)
   + C232(10) + C233(4) + C234(8) + C235(7) + C236(10) + C237(3) + C238(5)
   + C239(4) + C240(6) + C241(9) + C242(11) + C243(7) + C244(4) + C245(6)
   + C246(8) + C247(7) + C248(10) + C249(5) + C250(5) + C251(6) + C252(5)
   + C253(4) + C254(5) + C255(5) + C256(8) + C257(15) + C258(8) + C259(8)
   + C260(8) + C261(14) + C262(7) + C263(12) + C264(12) + C265(5) = 1
 c41: C266(6) + C267(13) + C268(13) + C269(1) + C270(7) + C271(7)
   + C272(14) + C273(9) + C274(7) + C275(11) + C276(15) + C277(11)
   + C278(3) + C279(10) + C280(4) + C281(6) + C282(5) + C283(3) + C284(7)
   + C285(3) + C286(2) + C287(10) + C288(6) + C289(7) + C290(12) + C291(7)
   + C292(4) + C293(5) + C294(6) + C295(10) + C296(4) + C297(8) + C298(8)
   + C299(5) + C300(5) + C301(5) + C302(10) + C303(10) + C304(9) + C305(7)
   + C306(9) + C307(5) + C308(6) + C309(7) = 1
Bounds
End
